
Starting CP-SAT solver v9.15.6755
Parameters: random_seed: 2026074036 max_time_in_seconds: 2500 log_search_progress: true cp_model_presolve: true linearization_level: 2 num_search_workers: 4 cp_model_probing_level: 2 symmetry_level: 2

Initial satisfaction model '': (model_fingerprint: 0xb688d81f389abd41)
#Variables: 724 (608 primary variables)
  - 724 Booleans in [0,1]
#kBoolAnd: 110 (#enforced: 110) (#literals: 330)
#kBoolOr: 110 (#enforced: 110) (#literals: 220)
#kExactlyOne: 87 (#literals: 261)
#kLinear1: 32 (#enforced: 6)
#kLinear2: 336 (#enforced: 336) (#complex_domain: 110)
#kLinear3: 1'600 (#enforced: 6)
#kLinearN: 1'132 (#enforced: 243) (#terms: 9'111)

Starting presolve at 0.00s
  6.60e-04s  0.00e+00d  [DetectDominanceRelations] 
  8.85e-03s  0.00e+00d  [PresolveToFixPoint] #num_loops=3 #num_dual_strengthening=1 
  3.44e-05s  0.00e+00d  [ExtractEncodingFromLinear] #potential_supersets=86 
  2.90e-04s  0.00e+00d  [DetectDuplicateColumns] 
  9.84e-05s  0.00e+00d  [DetectDuplicateConstraints] #duplicates=5 
[Symmetry] Graph for symmetry has 4'868 nodes and 15'698 arcs.
[Symmetry] Symmetry computation done. time: 0.00124317 dtime: 0.00180273
[SAT presolve] num removable Booleans: 220 / 626
[SAT presolve] num trivial clauses: 0
[SAT presolve] [0s] clauses:2'728 literals:7'422 vars:506 one_side_vars:66 simple_definition:1 singleton_clauses:0
[SAT presolve] [0.000215725s] clauses:2'727 literals:7'415 vars:506 one_side_vars:66 simple_definition:1 singleton_clauses:0
[SAT presolve] [0.000554042s] clauses:2'495 literals:7'080 vars:394 one_side_vars:66 simple_definition:2 singleton_clauses:0
  1.27e-04s  0.00e+00d  [DetectDuplicateConstraintsWithDifferentEnforcements] #without_enforcements=2 
  6.01e-03s  3.36e-03d  [Probe] #probed=1'293 #fixed_bools=23 #equiv=13 #new_binary_clauses=750 
  6.92e-04s  5.19e-04d  [MaxClique] Merged 689 constraints with 1'520 literals into 620 constraints with 1'395 literals
  8.57e-04s  0.00e+00d  [DetectDominanceRelations] 
  3.45e-03s  0.00e+00d  [PresolveToFixPoint] #num_loops=2 #num_dual_strengthening=2 
  1.16e-03s  0.00e+00d  [ProcessAtMostOneAndLinear] 
  1.26e-04s  0.00e+00d  [DetectDuplicateConstraints] #duplicates=12 
  1.02e-04s  0.00e+00d  [DetectDuplicateConstraintsWithDifferentEnforcements] 
  3.65e-03s  1.07e-04d  [DetectDominatedLinearConstraints] #relevant_constraints=816 #num_inclusions=517 #num_redundant=7 
  1.17e-04s  0.00e+00d  [DetectDifferentVariables] 
  7.64e-04s  8.74e-05d  [ProcessSetPPC] #relevant_constraints=3'174 #num_inclusions=286 
  2.92e-04s  3.54e-05d  [TransformClausesToExactlyOne] #num_amos=585 #num_clauses=1'797 #num_transformed=5 #num_checked=1'797 
  6.26e-05s  0.00e+00d  [DetectEncodedComplexDomains] 
  3.52e-05s  1.60e-07d  [FindAlmostIdenticalLinearConstraints] #num_tested_pairs=2 
  9.31e-04s  1.39e-03d  [FindBigAtMostOneAndLinearOverlap] 
  1.43e-03s  1.26e-03d  [FindBigVerticalLinearOverlap] #blocks=1 #saved_nz=34 
  3.81e-04s  6.96e-04d  [FindBigHorizontalLinearOverlap] #linears=448 
  3.63e-04s  2.80e-05d  [MergeClauses] #num_collisions=6 #num_merges=6 #num_saved_literals=13 
  6.20e-04s  0.00e+00d  [DetectDominanceRelations] 
  2.94e-03s  0.00e+00d  [PresolveToFixPoint] #num_loops=2 #num_dual_strengthening=1 
  6.08e-04s  0.00e+00d  [DetectDominanceRelations] 
  2.79e-03s  0.00e+00d  [PresolveToFixPoint] #num_loops=1 #num_dual_strengthening=1 
  1.49e-04s  0.00e+00d  [DetectDuplicateColumns] 
  9.44e-05s  0.00e+00d  [DetectDuplicateConstraints] 
[Symmetry] Graph for symmetry has 4'501 nodes and 13'985 arcs.
[Symmetry] Symmetry computation done. time: 0.00105829 dtime: 0.00147342
[SAT presolve] num removable Booleans: 100 / 480
[SAT presolve] num trivial clauses: 0
[SAT presolve] [0s] clauses:2'354 literals:6'735 vars:453 one_side_vars:144 simple_definition:13 singleton_clauses:0
[SAT presolve] [0.000221106s] clauses:2'353 literals:6'583 vars:453 one_side_vars:145 simple_definition:83 singleton_clauses:0
[SAT presolve] [0.000355308s] clauses:2'162 literals:6'139 vars:449 one_side_vars:181 simple_definition:65 singleton_clauses:0
  1.51e-04s  0.00e+00d  [DetectDuplicateConstraintsWithDifferentEnforcements] 
  5.41e-03s  1.77e-03d  [Probe] #probed=1'274 #new_binary_clauses=238 
  3.89e-04s  2.09e-04d  [MaxClique] Merged 477 constraints with 1'034 literals into 465 constraints with 1'021 literals
  8.14e-04s  0.00e+00d  [DetectDominanceRelations] 
  3.06e-03s  0.00e+00d  [PresolveToFixPoint] #num_loops=1 #num_dual_strengthening=1 
  1.10e-03s  0.00e+00d  [ProcessAtMostOneAndLinear] 
  1.16e-04s  0.00e+00d  [DetectDuplicateConstraints] 
  9.67e-05s  0.00e+00d  [DetectDuplicateConstraintsWithDifferentEnforcements] 
  5.33e-03s  1.26e-04d  [DetectDominatedLinearConstraints] #relevant_constraints=808 #num_inclusions=618 
  1.20e-04s  0.00e+00d  [DetectDifferentVariables] 
  7.24e-04s  7.89e-05d  [ProcessSetPPC] #relevant_constraints=3'041 #num_inclusions=124 
  2.70e-04s  3.25e-05d  [TransformClausesToExactlyOne] #num_amos=461 #num_clauses=1'715 #num_checked=1'715 
  1.39e-04s  0.00e+00d  [DetectEncodedComplexDomains] 
  4.20e-05s  1.70e-07d  [FindAlmostIdenticalLinearConstraints] #num_tested_pairs=2 
  8.74e-04s  1.32e-03d  [FindBigAtMostOneAndLinearOverlap] 
  1.41e-03s  1.17e-03d  [FindBigVerticalLinearOverlap] #blocks=3 #saved_nz=110 
  3.80e-04s  6.51e-04d  [FindBigHorizontalLinearOverlap] #linears=448 
  3.32e-04s  2.62e-05d  [MergeClauses] #num_collisions=73 #num_merges=73 #num_saved_literals=177 
  8.39e-04s  0.00e+00d  [DetectDominanceRelations] 
  3.24e-03s  0.00e+00d  [PresolveToFixPoint] #num_loops=2 #num_dual_strengthening=1 
  8.28e-04s  0.00e+00d  [DetectDominanceRelations] 
  2.97e-03s  0.00e+00d  [PresolveToFixPoint] #num_loops=1 #num_dual_strengthening=1 
  1.70e-04s  0.00e+00d  [DetectDuplicateColumns] 
  1.07e-04s  0.00e+00d  [DetectDuplicateConstraints] 
[Symmetry] Graph for symmetry has 4'276 nodes and 13'005 arcs.
[Symmetry] Symmetry computation done. time: 0.0009408 dtime: 0.00138923
[SAT presolve] num removable Booleans: 96 / 479
[SAT presolve] num trivial clauses: 0
[SAT presolve] [0s] clauses:2'151 literals:6'121 vars:453 one_side_vars:181 simple_definition:67 singleton_clauses:0
[SAT presolve] [0.000195127s] clauses:2'150 literals:6'117 vars:453 one_side_vars:181 simple_definition:67 singleton_clauses:0
[SAT presolve] [0.000253708s] clauses:2'150 literals:6'117 vars:453 one_side_vars:181 simple_definition:67 singleton_clauses:0
  1.59e-04s  0.00e+00d  [DetectDuplicateConstraintsWithDifferentEnforcements] 
  5.50e-03s  1.81e-03d  [Probe] #probed=1'280 #new_binary_clauses=253 
  4.63e-04s  2.10e-04d  [MaxClique] 
  8.56e-04s  0.00e+00d  [DetectDominanceRelations] 
  3.11e-03s  0.00e+00d  [PresolveToFixPoint] #num_loops=1 #num_dual_strengthening=1 
  1.07e-03s  0.00e+00d  [ProcessAtMostOneAndLinear] 
  1.11e-04s  0.00e+00d  [DetectDuplicateConstraints] 
  1.04e-04s  0.00e+00d  [DetectDuplicateConstraintsWithDifferentEnforcements] 
  2.61e-03s  8.06e-05d  [DetectDominatedLinearConstraints] #relevant_constraints=808 #num_inclusions=407 
  1.39e-04s  0.00e+00d  [DetectDifferentVariables] 
  7.01e-04s  7.40e-05d  [ProcessSetPPC] #relevant_constraints=3'044 #num_inclusions=101 
  2.94e-04s  3.26e-05d  [TransformClausesToExactlyOne] #num_amos=462 #num_clauses=1'721 #num_checked=1'721 
  1.41e-04s  0.00e+00d  [DetectEncodedComplexDomains] 
  5.26e-05s  9.00e-08d  [FindAlmostIdenticalLinearConstraints] #num_tested_pairs=1 
  8.41e-04s  1.16e-03d  [FindBigAtMostOneAndLinearOverlap] 
  1.35e-03s  1.07e-03d  [FindBigVerticalLinearOverlap] #blocks=2 #saved_nz=189 
  3.82e-04s  6.05e-04d  [FindBigHorizontalLinearOverlap] #linears=448 
  3.39e-04s  2.63e-05d  [MergeClauses] #num_collisions=73 #num_merges=73 #num_saved_literals=177 
  8.50e-04s  0.00e+00d  [DetectDominanceRelations] 
  3.14e-03s  0.00e+00d  [PresolveToFixPoint] #num_loops=2 #num_dual_strengthening=1 
  3.22e-05s  0.00e+00d  [MergeNoOverlap] 
  3.34e-05s  0.00e+00d  [MergeNoOverlap2D] 

Presolve summary:
  - 43 affine relations were detected.
  - rule 'TODO dual: only one blocking constraint?' was applied 877 times.
  - rule 'TODO linear inclusion: superset is equality' was applied 642 times.
  - rule 'affine: new relation' was applied 43 times.
  - rule 'at_most_one: removed literals' was applied 101 times.
  - rule 'at_most_one: size one' was applied 100 times.
  - rule 'at_most_one: transformed into max clique' was applied 2 times.
  - rule 'bool_and: cannot be enforced' was applied 1 time.
  - rule 'bool_or: always true' was applied 6 times.
  - rule 'bool_or: fixed literals' was applied 2 times.
  - rule 'bool_or: implications' was applied 77 times.
  - rule 'bool_or: only one literal' was applied 12 times.
  - rule 'bool_or: removed enforcement literal' was applied 573 times.
  - rule 'clauses: transformed into exactly one' was applied 5 times.
  - rule 'deductions: 865 stored' was applied 1 time.
  - rule 'dual: fix variable' was applied 1 time.
  - rule 'duplicate: merged rhs of linear constraint' was applied 16 times.
  - rule 'duplicate: removed constraint' was applied 17 times.
  - rule 'duplicate: removed enforced constraint' was applied 2 times.
  - rule 'enforcement: false literal' was applied 40 times.
  - rule 'enforcement: true literal' was applied 14 times.
  - rule 'exactly_one: removed literals' was applied 32 times.
  - rule 'exactly_one: satisfied' was applied 3 times.
  - rule 'exactly_one: singleton' was applied 2 times.
  - rule 'exactly_one: size two' was applied 30 times.
  - rule 'exactly_one: x and not(x)' was applied 10 times.
  - rule 'incompatible linear: add implication' was applied 114 times.
  - rule 'linear + amo: empty after processing' was applied 6 times.
  - rule 'linear + amo: extracted enforcement literal' was applied 58 times.
  - rule 'linear inclusion: redundant containing constraint' was applied 3 times.
  - rule 'linear inclusion: redundant included constraint' was applied 3 times.
  - rule 'linear inclusion: sparsify superset' was applied 1 time.
  - rule 'linear matrix: common vertical rectangle' was applied 6 times.
  - rule 'linear1: x in domain' was applied 26 times.
  - rule 'linear2: convert ax + by != cte to clauses' was applied 256 times.
  - rule 'linear2: convert implied ax + by == cte to clauses' was applied 118 times.
  - rule 'linear2: implied ax + by = cte has only one solution' was applied 8 times.
  - rule 'linear: always true' was applied 420 times.
  - rule 'linear: empty' was applied 1 time.
  - rule 'linear: extracted at most one (max)' was applied 1 time.
  - rule 'linear: fixed or dup variables' was applied 880 times.
  - rule 'linear: negative clause' was applied 1'299 times.
  - rule 'linear: negative reified and' was applied 78 times.
  - rule 'linear: never in domain' was applied 6 times.
  - rule 'linear: positive at most one' was applied 34 times.
  - rule 'linear: reduced variable domains' was applied 7 times.
  - rule 'linear: remapped using affine relations' was applied 22 times.
  - rule 'new_bool: integer encoding' was applied 6 times.
  - rule 'presolve: 90 unused variables removed.' was applied 1 time.
  - rule 'presolve: iteration' was applied 3 times.
  - rule 'probing: bool_or reduced to implication' was applied 42 times.
  - rule 'probing: simplified clauses' was applied 5 times.
  - rule 'setppc: bool_or in at_most_one' was applied 12 times.
  - rule 'setppc: removed dominated constraints' was applied 79 times.
  - rule 'variables: add encoding constraint' was applied 6 times.

Presolved satisfaction model '': (model_fingerprint: 0xf6f131b7321d79e8)
#Variables: 485 (412 primary variables)
  - 479 Booleans in [0,1]
  - 4 in [0,2]
  - 1 in [0,4]
  - 1 in [0,5]
#kAtMostOne: 33 (#literals: 146)
#kBoolAnd: 265 (#enforced: 265) (#literals: 694)
#kBoolAndClauses: 73 (#enforced: 73 #multi: 73) (#literals: 323)
#kBoolOr: 1'575 (#literals: 4'759)
#kExactlyOne: 53 (#literals: 205)
#kLinear1: 12 (#enforced: 12)
#kLinear3: 1
#kLinearN: 809 (#enforced: 116) (#terms: 5'392)
[Symmetry] Graph for symmetry has 4'029 nodes and 12'814 arcs.
[Symmetry] Symmetry computation done. time: 0.000879103 dtime: 0.00136462

Preloading model.
#Model   0.10s var:485/485 constraints:2821/2821

Starting search at 0.10s with 4 workers.
3 full problem subsolvers: [default_lp, max_lp, no_lp]
1 first solution subsolver: [fj]
2 interleaved subsolvers: [feasibility_pump, rins/rens]
2 helper subsolvers: [neighborhood_helper, synchronization_agent]

#Model   0.72s var:484/485 constraints:2820/2821
#Model   2.59s var:483/485 constraints:2819/2821
#Model 271.44s var:482/485 constraints:2817/2821

Task timing                   n [     min,      max]      avg      dev     time         n [     min,      max]      avg      dev    dtime
        'default_lp':         1 [  41.66m,   41.66m]   41.66m   0.00ns   41.66m         2 [  1.96ms,   41.62m]   20.81m   20.81m   41.62m
  'feasibility_pump':     12395 [ 34.57us, 112.42ms]   1.57ms   1.05ms   19.48s     12393 [276.85us,  96.83ms] 287.41us 867.24us    3.56s
                'fj':      8991 [112.88ms, 234.51ms] 137.86ms   8.40ms   20.66m      8991 [100.00ms, 100.14ms] 100.02ms  14.89us   14.99m
            'max_lp':         1 [  41.67m,   41.67m]   41.67m   0.00ns   41.67m         2 [ 90.03ms,   54.13m]   27.07m   27.07m   54.13m
             'no_lp':         1 [  41.68m,   41.68m]   41.68m   0.00ns   41.68m         2 [  1.58ms,    1.49h]   44.61m   44.61m    1.49h
         'rins/rens':     10909 [ 20.68ms, 217.38ms] 113.63ms  42.59ms   20.66m     10909 [198.61us, 100.36ms]  68.37ms  36.99ms   12.43m

Search stats     Bools   Conflicts    Branches  Restarts  BacktrackToRoot   Backtrack     BoolPropag  IntegerPropag
  'default_lp':    479     228'438   6'973'901     1'442        1'007'402   1'516'816     67'384'216     80'508'428
      'max_lp':    479      92'502   9'700'884       670        1'399'272   1'845'943     87'592'379    116'421'793
       'no_lp':    479  22'019'748  28'804'535    75'854          479'552  22'250'330  1'799'553'936    464'169'465

SAT formula      Fixed  Equiv  Total  VarLeft  BinaryClauses  PermanentClauses  TemporaryClauses
  'default_lp':      3      1    479      475          2'598            50'178             6'970
      'max_lp':      3      1    479      475          2'598            49'714             7'351
       'no_lp':      3      1    479      475          2'598           141'589             6'132

SAT stats        ClassicMinim   LitRemoved  LitRemovedBinary   LitLearned  LitForgotten   Subsumed
  'default_lp':       199'928    2'750'939         1'265'162    7'221'612     4'810'001     82'762
      'max_lp':        79'157      961'014           441'088    2'359'694     1'299'015     35'187
       'no_lp':    19'774'431  345'694'264        77'018'984  521'738'122   399'584'000  6'552'499

Vivification       Clauses  Decisions  LitTrue  Subsumed  LitRemoved  DecisionReused  Conflicts
  'default_lp':  1'037'766  6'431'092        1    13'636     156'163         325'194      1'447
      'max_lp':  1'414'721  9'239'255        0    14'782     168'900         393'540      1'566
       'no_lp':    328'866  2'924'130        0    23'866     324'509          86'502      1'210

Clause deletion    at_true  l_and_not(l)  to_binary  sub_conflict  sub_extra  sub_decisions  sub_eager  sub_vivify  sub_probing  sub_inpro  blocked  eliminated   forgotten    promoted   conflicts
    'default_lp':       21             0          1        81'675        568          3'500      1'087      13'636        1'529      9'365        0           0     124'998     449'983     228'438
        'max_lp':       19             0          2        34'868        213          1'072        319      14'782        1'058      6'817        0           0      41'355     171'277      92'502
         'no_lp':       23             0         11     6'443'557     41'021        351'688    108'942      23'866        3'369    107'254        0           0  14'796'933  49'251'371  22'019'748

Lp stats         Component  Iterations  AddedCuts  OPTIMAL  DUAL_F.  DUAL_U.
  'default_lp':          1  29'121'689     96'760  337'100        1  169'064
      'max_lp':          1  13'918'094     89'616   43'801   66'353   33'969

Lp dimension        Final dimension of first component
  'default_lp':   394 rows, 331 columns, 12128 entries
      'max_lp':  1519 rows, 485 columns, 36493 entries

Lp debug         CutPropag  CutEqPropag   Adjust  Overflow        Bad  BadScaling
  'default_lp':          0           30  169'062         0  3'062'351           0
      'max_lp':          0           75   33'960         0  2'897'405           0

Lp pool          Constraints  Updates  Simplif  Merged  Shortened  Split  Strengthened       Cuts/Call
  'default_lp':       10'517   21'708        0       0         12      0            15  96'760/162'516
      'max_lp':       12'744   29'242        0       6         70      0         1'974  89'616/171'239

Lp Cut            default_lp  max_lp
          CG_FF:       1'040     116
           CG_K:         586      20
          CG_KL:         508      11
           CG_R:       1'116      77
          CG_RB:          64       5
         CG_RBP:          17       2
         Clique:           -     205
             IB:         110      23
       MIR_1_FF:         441     833
        MIR_1_K:          91      66
       MIR_1_KL:         253      42
        MIR_1_R:         410     491
       MIR_1_RB:           5       3
      MIR_1_RBP:           1       1
      MIR_1_RLT:           -   9'347
       MIR_2_FF:         484     685
        MIR_2_K:          82     102
       MIR_2_KL:         239     113
        MIR_2_R:         687     838
       MIR_2_RB:          10       8
      MIR_2_RBP:           4       1
       MIR_3_FF:         279     179
        MIR_3_K:          27      23
       MIR_3_KL:          90      20
        MIR_3_R:         389     274
       MIR_3_RB:           8       4
      MIR_3_RBP:           6       4
       MIR_4_FF:          76      57
        MIR_4_K:           9       8
       MIR_4_KL:          25       7
        MIR_4_R:         310     234
       MIR_4_RB:          11       3
      MIR_4_RBP:           5       7
       MIR_5_FF:          20      25
        MIR_5_K:           3       8
       MIR_5_KL:           4       2
        MIR_5_R:         255     205
       MIR_5_RB:           3       2
      MIR_5_RBP:           2       2
       MIR_6_FF:          12      15
        MIR_6_K:           -       5
       MIR_6_KL:           5       -
        MIR_6_R:         194     176
       MIR_6_RB:           3       3
      MIR_6_RBP:           4       5
   ZERO_HALF_FF:         385     646
    ZERO_HALF_K:          93      37
   ZERO_HALF_KL:          79       8
    ZERO_HALF_R:      87'962  74'379
   ZERO_HALF_RB:          51       4
  ZERO_HALF_RBP:         302     285

LNS stats       Improv/Calls  Closed  Difficulty  TimeLimit
  'rins/rens':   10909/10909     50%    7.80e-01       0.10

LS stats                                    Batches  Restarts/Perturbs    LinMoves   GenMoves  CompoundMoves  Bactracks  WeightUpdates  ScoreComputed
                             'fj_restart':      350                128  10'667'633          0              0          0      7'772'600     20'371'557
                    'fj_restart_compound':      402                112           0  4'098'820        275'528  1'911'419          9'300     72'102'106
                'fj_restart_compound_obj':      662                143           0  6'748'994        346'099  3'201'175         18'687    119'732'273
            'fj_restart_compound_perturb':      339                116           0  3'401'097        247'377  1'576'636          7'795     60'924'500
        'fj_restart_compound_perturb_obj':      416                113           0  4'292'039        278'007  2'006'804          9'734     74'931'670
                       'fj_restart_decay':      757                124  22'219'017          0              0          0        942'568     16'564'605
              'fj_restart_decay_compound':      413                124           0  4'576'619        775'360  1'900'360          5'121     74'268'440
          'fj_restart_decay_compound_obj':      742                133           0  8'578'636      1'453'498  3'562'212          8'967    133'958'823
      'fj_restart_decay_compound_perturb':      486                120           0  5'462'194        925'497  2'268'000          5'939     87'588'514
  'fj_restart_decay_compound_perturb_obj':      424                123           0  4'658'370        786'602  1'935'556          5'170     76'305'254
                   'fj_restart_decay_obj':      615                131  18'051'526          0              0          0        766'284     13'463'360
               'fj_restart_decay_perturb':      478                130  14'025'332          0              0          0        595'261     10'452'119
           'fj_restart_decay_perturb_obj':      363                120  10'650'407          0              0          0        452'425      7'923'306
                         'fj_restart_obj':      820                130  25'554'091          0              0          0     18'583'492     48'018'721
                     'fj_restart_perturb':      684                115  21'418'799          0              0          0     15'810'305     38'166'331
                 'fj_restart_perturb_obj':    1'040                119  32'363'368          0              0          0     23'946'548     65'193'105

Solution repositories    Added  Queried  Synchro
    'alternative_path':      0        0        0
      'best_solutions':      0        0        0
   'fj solution hints':  1'973        0    1'973
        'lp solutions':  1'002   10'909    1'001
                'pump':      0        0

Improving bounds shared    Num  Sym
            'default_lp':    1    0
                 'no_lp':    2    0

Clauses shared    #Exported  #Imported  #BinaryRead  #BinaryTotal
   'default_lp':      2'292     63'514          920           920
       'max_lp':      2'295     63'370          920           920
        'no_lp':     63'245      4'258          920           920

LRAT_status: NA
CpSolverResponse summary:
status: UNKNOWN
objective: NA
best_bound: NA
integers: 344
booleans: 479
conflicts: 228438
branches: 6973901
propagations: 67384216
integer_propagations: 80508428
restarts: 1442
lp_iterations: 29121689
walltime: 2500.83
usertime: 2500.83
deterministic_time: 12746.9
gap_integral: 0

{
  "board_size": 22,
  "parity_proved": 0,
  "target": 34,
  "child_id": 1936,
  "child_count": 2640,
  "partition": "unknown_pair_x_diag_plus_twos_x_diag_minus_twos",
  "build_seconds": 0.07787680625915527,
  "workers": 4,
  "requested_seed": 2026074036,
  "effective_seed": 2026074036,
  "main_diagonal_pair": [
    4,
    16
  ],
  "pair_index": 83,
  "diag_plus_twos": 15,
  "diag_minus_twos": 16,
  "pair_excess": 0,
  "residual_certificate_slack": 112,
  "analytic_minimum_line_defect": 48,
  "analytic_defect_details": {
    "row_costs": {
      "12": 6,
      "13": 3,
      "14": 0,
      "15": 0,
      "16": 0,
      "17": 0
    },
    "column_costs": {
      "12": 6,
      "13": 3,
      "14": 0,
      "15": 0,
      "16": 0,
      "17": 0
    },
    "plus_cost": 48,
    "minus_cost": 0,
    "row_column_minimum": 0
  },
  "maximal_line_constraints": 2455,
  "analytic_infeasible": false,
  "allowed_points": 242,
  "status": "UNKNOWN",
  "proof_method": "cp_sat_all_lines_with_certificate_profile_cuts",
  "elapsed_seconds": 2500.8315773010254,
  "branches": 6973901,
  "conflicts": 228438
}
